sat
(
  (define-fun ProcProv4 () Int
    4)
  (define-fun MemProv6 () Int
    15000)
  (define-fun StorageProv6 () Int
    4000)
  (define-fun ProcProv2 () Int
    8)
  (define-fun C4_VM6 () Int
    0)
  (define-fun StorageProv4 () Int
    4000)
  (define-fun PriceProv5 () Int
    210)
  (define-fun ProcProv1 () Int
    4)
  (define-fun MemProv3 () Int
    15000)
  (define-fun C4_VM3 () Int
    0)
  (define-fun ProcProv8 () Int
    8)
  (define-fun C4_VM7 () Int
    0)
  (define-fun MemProv7 () Int
    15000)
  (define-fun C3_VM4 () Int
    0)
  (define-fun PriceProv3 () Int
    379)
  (define-fun ProcProv6 () Int
    4)
  (define-fun PriceProv8 () Int
    460)
  (define-fun VM3Type () Int
    186)
  (define-fun C4_VM4 () Int
    0)
  (define-fun StorageProv7 () Int
    4000)
  (define-fun C1_VM1 () Int
    1)
  (define-fun MemProv5 () Int
    7500)
  (define-fun C4_VM8 () Int
    0)
  (define-fun MemProv1 () Int
    15000)
  (define-fun StorageProv1 () Int
    4000)
  (define-fun MemProv4 () Int
    15000)
  (define-fun C2_VM2 () Int
    0)
  (define-fun PriceProv6 () Int
    379)
  (define-fun C2_VM6 () Int
    1)
  (define-fun VM6Type () Int
    186)
  (define-fun C3_VM6 () Int
    0)
  (define-fun C5_VM8 () Int
    1)
  (define-fun C1_VM4 () Int
    1)
  (define-fun C2_VM4 () Int
    1)
  (define-fun C1_VM8 () Int
    1)
  (define-fun PriceProv7 () Int
    379)
  (define-fun VM4Type () Int
    186)
  (define-fun C2_VM1 () Int
    1)
  (define-fun C3_VM7 () Int
    0)
  (define-fun VM2Type () Int
    136)
  (define-fun C4_VM5 () Int
    0)
  (define-fun ProcProv5 () Int
    4)
  (define-fun C4_VM1 () Int
    0)
  (define-fun C5_VM3 () Int
    0)
  (define-fun C3_VM5 () Int
    1)
  (define-fun PriceProv4 () Int
    379)
  (define-fun MemProv8 () Int
    15000)
  (define-fun C3_VM2 () Int
    0)
  (define-fun StorageProv3 () Int
    4000)
  (define-fun PriceProv1 () Int
    379)
  (define-fun C3_VM1 () Int
    0)
  (define-fun C5_VM4 () Int
    0)
  (define-fun MemProv2 () Int
    15000)
  (define-fun StorageProv5 () Int
    2000)
  (define-fun C3_VM8 () Int
    0)
  (define-fun C5_VM5 () Int
    0)
  (define-fun C5_VM7 () Int
    0)
  (define-fun VM1Type () Int
    186)
  (define-fun ProcProv3 () Int
    4)
  (define-fun C2_VM8 () Int
    0)
  (define-fun C5_VM6 () Int
    0)
  (define-fun C1_VM3 () Int
    1)
  (define-fun C2_VM7 () Int
    1)
  (define-fun C3_VM3 () Int
    0)
  (define-fun C1_VM5 () Int
    0)
  (define-fun C2_VM3 () Int
    1)
  (define-fun C2_VM5 () Int
    0)
  (define-fun StorageProv8 () Int
    2000)
  (define-fun StorageProv2 () Int
    2000)
  (define-fun C4_VM2 () Int
    0)
  (define-fun ProcProv7 () Int
    4)
  (define-fun C5_VM2 () Int
    1)
  (define-fun PriceProv2 () Int
    460)
  (define-fun C1_VM7 () Int
    1)
  (define-fun VM8Type () Int
    136)
  (define-fun C1_VM6 () Int
    1)
  (define-fun C5_VM1 () Int
    0)
  (define-fun VM5Type () Int
    182)
  (define-fun VM7Type () Int
    186)
  (define-fun C1_VM2 () Int
    1)
)
(objectives
 ( 2215)
 ((+ 0
   PriceProv1
   PriceProv2
   PriceProv3
   PriceProv4
   PriceProv5
   PriceProv6
   PriceProv7
   PriceProv8) 3025)
)
(:added-eqs                   7380095
 :arith-eq-adapter            26913744
 :arith-bound-propagations-lp 166852
 :arith-conflicts             139
 :arith-diseq                 31975894
 :arith-fixed-eqs             101837
 :arith-lower                 36729593
 :arith-make-feasible         5220833
 :arith-max-columns           375
 :arith-max-rows              26
 :arith-upper                 29531634
 :binary-propagations         83016259
 :bv-bit2core                 820450
 :bv-dynamic-diseqs           31121210
 :bv-dynamic-eqs              8
 :bv->core-eq                 5460
 :conflicts                   88430
 :decisions                   19344599
 :del-clause                  54610080
 :final-checks                4438
 :max-memory                  149.64
 :maxsat-cores                2177
 :memory                      141.58
 :minimized-lits              192585
 :mk-bool-var                 25744988
 :mk-clause                   54612698
 :mk-clause-binary            17926
 :num-allocs                  33281697097534.00
 :num-checks                  7973
 :pb-conflicts                349
 :pb-predicates               7
 :pb-propagations             91603
 :pb-resolves                 78
 :propagations                155522689
 :restarts                    182
 :rlimit-count                1205579698
 :time                        351.92
 :total-time                  147.78)
